NAME          
ROWS
 N  OBJ
 L  c1
COLUMNS
    MARKER    'MARKER'                 'INTORG'
    x[1]      c1        767
    x[1]      OBJ       -823
    x[2]      c1        342
    x[2]      OBJ       -372
    x[3]      c1        891
    x[3]      OBJ       -843
    x[4]      c1        35
    x[4]      OBJ       -43
    x[5]      c1        556
    x[5]      OBJ       -608
    x[6]      c1        240
    x[6]      OBJ       -168
    x[7]      c1        467
    x[7]      OBJ       -540
    x[8]      c1        101
    x[8]      OBJ       -84
    x[9]      c1        809
    x[9]      OBJ       -715
    x[10]     c1        605
    x[10]     OBJ       -617
RHS
    rhs       c1        2406
RANGES
BOUNDS
 LO bounds    x[1]      0
 PL bounds    x[1]
 LO bounds    x[2]      0
 PL bounds    x[2]
 LO bounds    x[3]      0
 PL bounds    x[3]
 LO bounds    x[4]      0
 PL bounds    x[4]
 LO bounds    x[5]      0
 PL bounds    x[5]
 LO bounds    x[6]      0
 PL bounds    x[6]
 LO bounds    x[7]      0
 PL bounds    x[7]
 LO bounds    x[8]      0
 PL bounds    x[8]
 LO bounds    x[9]      0
 PL bounds    x[9]
 LO bounds    x[10]     0
 PL bounds    x[10]
ENDATA
